RT is False
Default write of storage_offers_DA.csv just to have a file (but constraint should be inactive)
Reading model...
...model read.
creating competitive generators file...
...competitive generators recorded.
Loading data...
.. day-ahead data with real-time VRE data read.
Compiling instance...
...instance created.
Creating Offer Mitigation (model will solve as dispatch if TRUE)...
...storage offer mitigation file created
Converting model to MPEC...
...converted
NOTE: initial MIP solve with only storage competitive to get feasible solution
Solving...

Welcome to IBM(R) ILOG(R) CPLEX(R) Interactive Optimizer 12.9.0.0
  with Simplex, Mixed Integer & Barrier Optimizers
5725-A06 5725-A29 5724-Y48 5724-Y49 5724-Y54 5724-Y55 5655-Y21
Copyright IBM Corp. 1988, 2019.  All Rights Reserved.

Type 'help' for a list of available commands.
Type 'help' followed by a command name for more
information on commands.

CPLEX> Logfile 'cplex.log' closed.
Logfile 'C:\Users\llavin\Desktop\test826\logs\tmpnzpmdvs5.cplex.log' open.
CPLEX> New value for parallel optimization mode: -1
CPLEX> New value for mixed integer optimality gap tolerance: 0.01
CPLEX> New value for feasibility tolerance: 1e-09
CPLEX> New value for deterministic time limit in ticks: 100000
CPLEX> Problem 'C:\Users\llavin\Desktop\test826\logs\tmpho_467tv.pyomo.lp' read.
Read time = 0.22 sec. (14.72 ticks)
CPLEX> Problem name         : C:\Users\llavin\Desktop\test826\logs\tmpho_467tv.pyomo.lp
Objective sense      : Maximize
Variables            :   53805  [Nneg: 1,  Box: 22000,  Free: 4464,
                                 Binary: 27340]
Objective nonzeros   :    9029
Linear constraints   :  123205  [Less: 41346,  Greater: 59096,  Equal: 22763]
  Nonzeros           :  291753
  RHS nonzeros       :   67495

Variables            : Min LB: -5000.000        Max UB: 1000000.       
Objective nonzeros   : Min   : 0.07500000       Max   : 3000.000       
Linear constraints   :
  Nonzeros           : Min   : 0.07500000       Max   : 1000000.       
  RHS nonzeros       : Min   : 0.07500000       Max   : 1000000.       
CPLEX> CPXPARAM_Parallel                                -1
CPXPARAM_Simplex_Tolerances_Feasibility          1.0000000000000001e-09
CPXPARAM_DetTimeLimit                            100000
CPXPARAM_MIP_Tolerances_MIPGap                   0.01
Tried aggregator 3 times.
MIP Presolve eliminated 88704 rows and 19026 columns.
MIP Presolve added 3372 rows and 0 columns.
MIP Presolve modified 24858 coefficients.
Aggregator did 12974 substitutions.
Reduced MIP has 24899 rows, 21249 columns, and 70908 nonzeros.
Reduced MIP has 8399 binaries, 0 generals, 0 SOSs, and 0 indicators.
Presolve time = 0.28 sec. (167.92 ticks)
Probing fixed 370 vars, tightened 4120 bounds.
Probing time = 0.06 sec. (18.90 ticks)
Tried aggregator 2 times.
MIP Presolve eliminated 834 rows and 742 columns.
MIP Presolve modified 3035 coefficients.
Aggregator did 36 substitutions.
Reduced MIP has 24029 rows, 20471 columns, and 68390 nonzeros.
Reduced MIP has 8028 binaries, 0 generals, 0 SOSs, and 0 indicators.
Presolve time = 0.09 sec. (87.51 ticks)
Probing fixed 0 vars, tightened 254 bounds.
Probing time = 0.14 sec. (22.73 ticks)
Clique table members: 44314.
MIP emphasis: balance optimality and feasibility.
MIP search method: dynamic search.
Parallel mode: opportunistic, using up to 32 threads.
Root relaxation solution time = 0.44 sec. (648.71 ticks)

        Nodes                                         Cuts/
   Node  Left     Objective  IInf  Best Integer    Best Bound    ItCnt     Gap

      0     0     3980.7076    96                   3980.7076     5572         
*     0     0      integral     0     3980.7076     3980.7076     5572    0.00%
Elapsed time = 1.95 sec. (1568.46 ticks, tree = 0.01 MB, solutions = 1)

Root node processing (before b&c):
  Real time             =    1.97 sec. (1570.41 ticks)
Parallel b&c, 32 threads:
  Real time             =    0.00 sec. (0.00 ticks)
  Sync time (average)   =    0.00 sec.
  Wait time (average)   =    0.00 sec.
                          ------------
Total (root+branch&cut) =    1.97 sec. (1570.41 ticks)

Solution pool: 1 solution saved.

MIP - Integer optimal solution:  Objective =  3.9807076410e+03
Solution time =    1.97 sec.  Iterations = 5572  Nodes = 0
Deterministic time = 1570.56 ticks  (797.65 ticks/sec)

CPLEX> Incumbent solution written to file 'C:\Users\llavin\Desktop\test826\logs\tmprrv_swve.cplex.sol'.
CPLEX> NOTE: no warmstart specified for MIP iteration, default behavior is true
NOTE: resolving with all competitive generators using storage-only solution to warmstart
Solving...

Welcome to IBM(R) ILOG(R) CPLEX(R) Interactive Optimizer 12.9.0.0
  with Simplex, Mixed Integer & Barrier Optimizers
5725-A06 5725-A29 5724-Y48 5724-Y49 5724-Y54 5724-Y55 5655-Y21
Copyright IBM Corp. 1988, 2019.  All Rights Reserved.

Type 'help' for a list of available commands.
Type 'help' followed by a command name for more
information on commands.

CPLEX> Logfile 'cplex.log' closed.
Logfile 'C:\Users\llavin\Desktop\test826\logs\tmpjpqx_i7u.cplex.log' open.
CPLEX> New value for parallel optimization mode: -1
CPLEX> New value for mixed integer optimality gap tolerance: 0.01
CPLEX> New value for feasibility tolerance: 1e-09
CPLEX> New value for deterministic time limit in ticks: 100000
CPLEX> Problem 'C:\Users\llavin\Desktop\test826\logs\tmp2iqnzkup.pyomo.lp' read.
Read time = 0.23 sec. (14.74 ticks)
CPLEX> MIP start file 'C:\Users\llavin\Desktop\test826\logs\tmpclrfxnmh.cplex.mst' read.
CPLEX> Problem name         : C:\Users\llavin\Desktop\test826\logs\tmp2iqnzkup.pyomo.lp
Objective sense      : Maximize
Variables            :   54525  [Nneg: 1,  Box: 22720,  Free: 4464,
                                 Binary: 27340]
Objective nonzeros   :    9725
Linear constraints   :  123205  [Less: 41346,  Greater: 59096,  Equal: 22763]
  Nonzeros           :  291753
  RHS nonzeros       :   67495

Variables            : Min LB: -5000.000        Max UB: 1000000.       
Objective nonzeros   : Min   : 0.07500000       Max   : 3000.000       
Linear constraints   :
  Nonzeros           : Min   : 0.07500000       Max   : 1000000.       
  RHS nonzeros       : Min   : 0.07500000       Max   : 1000000.       
CPLEX> CPXPARAM_Parallel                                -1
CPXPARAM_Simplex_Tolerances_Feasibility          1.0000000000000001e-09
CPXPARAM_DetTimeLimit                            100000
CPXPARAM_MIP_Tolerances_MIPGap                   0.01
1 of 1 MIP starts provided solutions.
MIP start 'm1' defined initial solution with objective 62125.9472.
Tried aggregator 3 times.
MIP Presolve eliminated 88704 rows and 19746 columns.
MIP Presolve added 3372 rows and 0 columns.
MIP Presolve modified 24858 coefficients.
Aggregator did 12974 substitutions.
Reduced MIP has 24899 rows, 21249 columns, and 70908 nonzeros.
Reduced MIP has 8399 binaries, 0 generals, 0 SOSs, and 0 indicators.
Presolve time = 0.25 sec. (168.28 ticks)
Probing fixed 370 vars, tightened 4120 bounds.
Probing time = 0.06 sec. (18.90 ticks)
Tried aggregator 2 times.
MIP Presolve eliminated 834 rows and 742 columns.
MIP Presolve modified 3035 coefficients.
Aggregator did 36 substitutions.
Reduced MIP has 24029 rows, 20471 columns, and 68390 nonzeros.
Reduced MIP has 8028 binaries, 0 generals, 0 SOSs, and 0 indicators.
Presolve time = 0.11 sec. (87.51 ticks)
Probing fixed 0 vars, tightened 254 bounds.
Probing time = 0.13 sec. (22.73 ticks)
Clique table members: 44314.
MIP emphasis: balance optimality and feasibility.
MIP search method: dynamic search.
Parallel mode: opportunistic, using up to 32 threads.
Root relaxation solution time = 0.50 sec. (700.49 ticks)

        Nodes                                         Cuts/
   Node  Left     Objective  IInf  Best Integer    Best Bound    ItCnt     Gap

*     0+    0                        62125.9472   7.33499e+07              --- 
      0     0    99085.1749   226    62125.9472    99085.1749     6290   59.49%
      0     0    97918.7884   108    62125.9472     Cuts: 417     6451   57.61%
      0     0    97585.0039   104    62125.9472     Cuts: 205     6522   57.08%
      0     0    97585.0039    92    62125.9472     Cuts: 245     6578   57.08%
      0     0    97585.0039    93    62125.9472      Cuts: 39     6584   57.08%
      0     0    97585.0039    52    62125.9472      Cuts: 10     6586   57.08%
      0     0    97585.0039    53    62125.9472      Cuts: 27     6598   57.08%
      0    28        cutoff          62125.9472      Cuts: 15     7154   56.83%
Elapsed time = 5.20 sec. (2919.79 ticks, tree = 0.02 MB, solutions = 1)
    400   148        cutoff          62125.9472    91977.8494     9848   48.05%
    990   429    65678.2969    12    62125.9472    91977.8494    15249   48.05%
   1753   574    62517.2471     9    62125.9472    91977.8494    16929   48.05%
   2645   964    62866.0755     5    62125.9472    91970.3497    22894   48.04%
   3636  1371    65958.1738    19    62125.9472    91969.7855    28434   48.04%
   4726  1665    65718.8219    24    62125.9472    91780.5384    30996   47.73%
   5856  3606    62804.4041     6    62125.9472    91778.3101    41228   47.73%
   6779  3948    62886.5926     8    62125.9472    91760.0784    43439   47.70%
   7708  5143    63123.0196    10    62125.9472    91744.1745    50716   47.67%
   8835  6909        cutoff          62125.9472    66363.3485    65436    6.82%
Elapsed time = 25.69 sec. (9517.19 ticks, tree = 78.12 MB, solutions = 1)
   9946   103    62198.1834     9    62125.9472    63925.8819    66334    2.90%
  11019   915    63409.7495    11    62125.9472    63606.3862    71990    2.38%
  11276  1565    62337.8076     8    62125.9472    63585.6628    76893    2.35%
  13364  1748        cutoff          62125.9472    63585.6628    78057    2.35%
  16667  2106    62486.1257    16    62125.9472    63585.6628    81580    2.35%
  20214  2939    63333.4109    32    62125.9472    63580.7772    90754    2.34%
  24037  3672    62283.4607    13    62125.9472    63572.2158    95491    2.33%
  27860  4160    62157.1044    14    62125.9472    63569.7683    99943    2.32%
* 30035  7973      integral     0    62242.5423    63569.7683   139306    2.13%
  33655  9630    62268.0921    21    62242.5423    63556.9453   172385    2.11%
Elapsed time = 76.69 sec. (18649.24 ticks, tree = 74.59 MB, solutions = 3)
  37016  8963    62250.3194     8    62242.5423    63555.0515   147849    2.11%
  39394 11626    62800.3937    29    62242.5423    63548.8376   171650    2.10%
  40849 10605    62261.8468     4    62242.5423    63517.2549   184585    2.05%
  41728 18444    63440.4409    11    62242.5423    63504.1156   268188    2.03%
  42673 13353    62279.4145    10    62242.5423    63504.1156   214407    2.03%
  44040 19255    62248.5722    23    62242.5423    63502.8593   275051    2.02%
  46004 15804    62274.2967    13    62242.5423    63502.6120   240965    2.02%
  48539 20305    62280.2063    10    62242.5423    63502.6120   286324    2.02%
  51375 19721    62253.1240     8    62242.5423    63502.6120   280518    2.02%
  54738 21914    63219.3054    23    62242.5423    63502.6120   303110    2.02%
Elapsed time = 115.09 sec. (28191.53 ticks, tree = 173.71 MB, solutions = 3)
  58054 19831    62253.8630    11    62242.5423    63501.1635   281988    2.02%
  61594 22642        cutoff          62242.5423    63500.8809   311274    2.02%
  65195 29464    62265.8441    13    62242.5423    63500.8809   384704    2.02%
  68932 24407    63361.2525    17    62242.5423    63500.8809   328901    2.02%
  72308 23628        cutoff          62242.5423    63500.8809   320534    2.02%
  75024 29594        cutoff          62242.5423    63500.8809   387277    2.02%
  77343 28385    62256.4150    10    62242.5423    63500.8809   370241    2.02%
  79038 25743    63387.7612    25    62242.5423    63500.8809   343313    2.02%
  80146 29017    63455.8156    14    62242.5423    63500.8809   377025    2.02%
  80825 30308    63171.6717    16    62242.5423    63500.8809   395942    2.02%
Elapsed time = 139.13 sec. (37732.21 ticks, tree = 243.73 MB, solutions = 3)
  81058 41177        cutoff          62242.5423    63492.4635   529763    2.01%
  81855    64    63384.1135    19    62242.5423    63492.4635   530539    2.01%
  83490   139    63478.5929    26    62242.5423    63492.4635   531803    2.01%
  85775   451    63298.9516    29    62242.5423    63492.4635   537288    2.01%
  88183  1570    62257.8806    13    62242.5423    63492.4635   548041    2.01%
  91049  2478    62709.1687    13    62242.5423    63492.4635   558540    2.01%
  94096  6852    62278.8072    16    62242.5423    63492.4635   606480    2.01%
  97064  7491    62255.7024    16    62242.5423    63492.4635   614597    2.01%
 100114 10736    62254.0161    17    62242.5423    63492.4635   656797    2.01%
 103451  9969    62255.2434    13    62242.5423    63492.4635   644497    2.01%
Elapsed time = 190.06 sec. (49978.96 ticks, tree = 65.64 MB, solutions = 3)
 106171 11144    63146.1274    19    62242.5423    62871.8010   669154    1.01%
 107025 11416    62251.9402    13    62242.5423    62871.8010   682238    1.01%

Clique cuts applied:  1
Cover cuts applied:  4
Implied bound cuts applied:  5
Flow cuts applied:  37
Mixed integer rounding cuts applied:  2
Gomory fractional cuts applied:  16

Root node processing (before b&c):
  Real time             =    3.75 sec. (2896.87 ticks)
Parallel b&c, 32 threads:
  Real time             =  188.72 sec. (49174.53 ticks)
  Sync time (average)   =    6.43 sec.
  Wait time (average)   =    0.37 sec.
                          ------------
Total (root+branch&cut) =  192.47 sec. (52071.40 ticks)

Solution pool: 3 solutions saved.

MIP - Integer optimal, tolerance (0.01/1e-06):  Objective =  6.2242542281e+04
Current MIP best bound =  6.2860569564e+04 (gap = 618.027, 0.99%)
Solution time =  192.53 sec.  Iterations = 696379  Nodes = 107067 (11847)
Deterministic time = 52071.55 ticks  (270.46 ticks/sec)

CPLEX> Incumbent solution written to file 'C:\Users\llavin\Desktop\test826\logs\tmpy_ta5ngm.cplex.sol'.
CPLEX> Exporting results... 
